data;
param T := 14750;
param N := 24;
param W := 
[0] 7904
[1] 9652
[2] 831
[3] 96
[4] 2568
[5] 1435
[6] 1260
[7] 1986
[8] 5181
[9] 3398
[10] 2439
[11] 4086
[12] 4342
[13] 3975
[14] 4779
[15] 6511
[16] 9255
[17] 7539
[18] 1763
[19] 9065
[20] 2712
[21] 9267
[22] 5693
[23] 7655
;
end;